certificates/rado_a15_c298_N30.cnf
c Rad2 upper bound instance: x1 + 15*x2 - x3 = 298, interval [1,30]
p cnf 30 120
1 3 20 0
-1 -3 -20 0
1 18 21 0
-1 -18 -21 0
2 4 20 0
-2 -4 -20 0
2 19 21 0
-2 -19 -21 0
3 5 20 0
-3 -5 -20 0
3 20 21 0
-3 -20 -21 0
4 6 20 0
-4 -6 -20 0
4 21 0
-4 -21 0
5 7 20 0
-5 -7 -20 0
5 21 22 0
-5 -21 -22 0
6 8 20 0
-6 -8 -20 0
6 21 23 0
-6 -21 -23 0
7 9 20 0
-7 -9 -20 0
7 21 24 0
-7 -21 -24 0
8 10 20 0
-8 -10 -20 0
8 21 25 0
-8 -21 -25 0
9 11 20 0
-9 -11 -20 0
9 21 26 0
-9 -21 -26 0
10 12 20 0
-10 -12 -20 0
10 21 27 0
-10 -21 -27 0
11 13 20 0
-11 -13 -20 0
11 21 28 0
-11 -21 -28 0
12 14 20 0
-12 -14 -20 0
12 21 29 0
-12 -21 -29 0
13 15 20 0
-13 -15 -20 0
13 21 30 0
-13 -21 -30 0
1 14 19 0
-1 -14 -19 0
14 16 20 0
-14 -16 -20 0
2 15 19 0
-2 -15 -19 0
15 17 20 0
-15 -17 -20 0
3 16 19 0
-3 -16 -19 0
16 18 20 0
-16 -18 -20 0
4 17 19 0
-4 -17 -19 0
17 19 20 0
-17 -19 -20 0
5 18 19 0
-5 -18 -19 0
18 20 0
-18 -20 0
6 19 0
-6 -19 0
19 20 21 0
-19 -20 -21 0
7 19 20 0
-7 -19 -20 0
20 22 0
-20 -22 0
8 19 21 0
-8 -19 -21 0
20 21 23 0
-20 -21 -23 0
9 19 22 0
-9 -19 -22 0
20 22 24 0
-20 -22 -24 0
10 19 23 0
-10 -19 -23 0
20 23 25 0
-20 -23 -25 0
11 19 24 0
-11 -19 -24 0
20 24 26 0
-20 -24 -26 0
12 19 25 0
-12 -19 -25 0
20 25 27 0
-20 -25 -27 0
13 19 26 0
-13 -19 -26 0
20 26 28 0
-20 -26 -28 0
14 19 27 0
-14 -19 -27 0
20 27 29 0
-20 -27 -29 0
15 19 28 0
-15 -19 -28 0
20 28 30 0
-20 -28 -30 0
1 18 29 0
-1 -18 -29 0
16 19 29 0
-16 -19 -29 0
2 18 30 0
-2 -18 -30 0
17 19 30 0
-17 -19 -30 0
