certificates/rado_a15_c298_N30.drat
-28 -30 0
d -28 -20 -30 0
20 21 -29 0
21 -29 0
d 20 21 -29 0
-20 13 -21 0
-21 -30 0
20 21 0
-30 0
21 0
-4 0
-20 0
18 0
22 0
28 0
2 0
6 0
-1 0
-5 0
-11 0
-19 0
-23 0
3 0
14 0
7 0
9 0
13 0
24 0
17 0
10 0
25 0
0
